Route #1: 12 41 27 40 42 32 43 17 11 5 14 37 6 30 13 9 38 8 15 33 28 29
Route #2: 1 26 45 22 50 47 23 36 31 51 46 24 21 25 16 2 10 48
Route #3: 19 7 44 3 35 18 39
Route #4: 20 49 4 34
Route #5: 
Route #6: 
Route #7: 
cost 1217.286284439377
